13,4	0,0	12,8	19,1	0,0	0,0	0,0	0,0	0,0	8,7
13,8	6,9	0,0	13,6	18,4	0,0	0,0	19,5	0,0	0,0
0,0	0,0	7,7	0,0	7,2	8,0	0,0	0,0	9,1	0,0
15,4	0,0	19,3	0,0	0,0	0,0	6,5	0,0	0,0	0,0
0,0	14,4	0,0	14,2	19,9	0,0	0,0	13,7	0,0	0,0
0,0	5,7	13,1	0,0	19,8	14,7	0,0	0,0	8,5	0,0
0,0	18,4	0,0	17,0	0,0	0,0	5,1	0,0	0,0	7,2
15,6	0,0	15,7	0,0	0,0	0,0	0,0	0,0	0,0	18,2
0,0	6,0	0,0	14,9	10,7	0,0	0,0	15,9	0,0	0,0
0,0	0,0	18,9	0,0	0,0	19,6	17,7	0,0	0,0	17,8
									
4,4	2,8	3,9	2,9	4,7	3,5	3,8	4,5	4,8	5,0
